Welcome to the CBC MILP Solver 
Version: 2.10.7 
Build Date: Feb 14 2022 

command line - cbc inputs/new_no_tr/order/triang7_2_tiers_input.lp sec 1800 solve solu solutions/new_no_tr/triang7_2_tiers_input.lp (default strategy 1)
seconds was changed from 1e+100 to 1800
Continuous objective value is 227.878 - 0.30 seconds
Cgl0002I 115 variables fixed
Cgl0003I 0 fixed, 13 tightened bounds, 607 strengthened rows, 0 substitutions
Cgl0003I 0 fixed, 18 tightened bounds, 231 strengthened rows, 0 substitutions
Cgl0003I 0 fixed, 13 tightened bounds, 124 strengthened rows, 0 substitutions
Cgl0003I 0 fixed, 6 tightened bounds, 37 strengthened rows, 0 substitutions
Cgl0003I 0 fixed, 4 tightened bounds, 8 strengthened rows, 0 substitutions
Cgl0003I 0 fixed, 1 tightened bounds, 5 strengthened rows, 0 substitutions
Cgl0003I 0 fixed, 2 tightened bounds, 1 strengthened rows, 0 substitutions
Cgl0003I 0 fixed, 1 tightened bounds, 0 strengthened rows, 0 substitutions
Cgl0004I processed model has 2708 rows, 939 columns (939 integer (910 of which binary)) and 9174 elements
Cutoff increment increased from 1e-05 to 0.9999
Cbc0045I 1 integer variables out of 939 objects (939 integer) have cost of 1 - high priority
Cbc0045I branch on satisfied Y create fake objective Y random cost Y
Cbc0038I Initial state - 444 integers unsatisfied sum - 133.066
Cbc0038I Pass   1: suminf.   69.17944 (504) obj. 304.179 iterations 1134
Cbc0038I Pass   2: suminf.   64.85128 (518) obj. 325.248 iterations 289
Cbc0038I Pass   3: suminf.   65.93454 (488) obj. 327.923 iterations 133
Cbc0038I Pass   4: suminf.   61.47824 (487) obj. 329.548 iterations 76
Cbc0038I Pass   5: suminf.   59.99070 (494) obj. 332.811 iterations 81
Cbc0038I Pass   6: suminf.   58.08136 (497) obj. 329.635 iterations 115
Cbc0038I Pass   7: suminf.   60.98858 (459) obj. 338.67 iterations 391
Cbc0038I Pass   8: suminf.   57.90433 (430) obj. 334.551 iterations 129
Cbc0038I Pass   9: suminf.   58.16069 (408) obj. 336.037 iterations 47
Cbc0038I Pass  10: suminf.   57.37771 (392) obj. 337.305 iterations 66
Cbc0038I Pass  11: suminf.   56.90906 (397) obj. 335.063 iterations 88
Cbc0038I Pass  12: suminf.   56.89201 (403) obj. 333.876 iterations 66
Cbc0038I Pass  13: suminf.   55.84303 (369) obj. 337.998 iterations 156
Cbc0038I Pass  14: suminf.   51.10165 (355) obj. 349.825 iterations 168
Cbc0038I Pass  15: suminf.   46.57041 (280) obj. 359.131 iterations 241
Cbc0038I Pass  16: suminf.   37.16424 (238) obj. 353.82 iterations 514
Cbc0038I Pass  17: suminf.   35.71600 (235) obj. 374.263 iterations 562
Cbc0038I Pass  18: suminf.   35.22701 (253) obj. 373.116 iterations 139
Cbc0038I Pass  19: suminf.   27.20821 (179) obj. 391.648 iterations 422
Cbc0038I Pass  20: suminf.   25.16618 (189) obj. 391.636 iterations 117
Cbc0038I Pass  21: suminf.   25.17280 (193) obj. 391.627 iterations 13
Cbc0038I Pass  22: suminf.   16.89897 (125) obj. 384.033 iterations 338
Cbc0038I Pass  23: suminf.   16.81617 (135) obj. 388.403 iterations 39
Cbc0038I Pass  24: suminf.    5.48247 (54) obj. 364.041 iterations 384
Cbc0038I Pass  25: suminf.    5.67918 (55) obj. 365.345 iterations 19
Cbc0038I Pass  26: suminf.    4.24195 (60) obj. 355.849 iterations 397
Cbc0038I Pass  27: suminf.    4.35574 (60) obj. 353.726 iterations 16
Cbc0038I Pass  28: suminf.    0.62238 (22) obj. 336 iterations 475
Cbc0038I Pass  29: suminf.    0.62238 (22) obj. 336 iterations 45
Cbc0038I Pass  30: suminf.    2.55116 (36) obj. 336 iterations 644
Cbc0038I Pass  31: suminf.    4.23069 (61) obj. 370 iterations 447
Cbc0038I Pass  32: suminf.    4.23069 (61) obj. 370 iterations 0
Cbc0038I Pass  33: suminf.    3.49300 (42) obj. 370 iterations 167
Cbc0038I Pass  34: suminf.    0.62182 (28) obj. 370 iterations 123
Cbc0038I Pass  35: suminf.    2.07414 (34) obj. 370 iterations 94
Cbc0038I Pass  36: suminf.    1.88889 (46) obj. 406.943 iterations 1011
Cbc0038I Pass  37: suminf.    1.00600 (29) obj. 408 iterations 89
Cbc0038I Pass  38: suminf.    2.92404 (21) obj. 408 iterations 691
Cbc0038I Pass  39: suminf.    2.92404 (21) obj. 408 iterations 11
Cbc0038I Pass  40: suminf.    4.56900 (55) obj. 408 iterations 431
Cbc0038I Pass  41: suminf.    5.18337 (90) obj. 408 iterations 575
Cbc0038I Pass  42: suminf.    5.18337 (90) obj. 408 iterations 6
Cbc0038I Pass  43: suminf.    3.64020 (26) obj. 408 iterations 621
Cbc0038I Pass  44: suminf.    0.00000 (0) obj. 408 iterations 451
Cbc0038I Solution found of 408
Cbc0038I Cleaned solution of 408
Cbc0038I Before mini branch and bound, 173 integers at bound fixed and 0 continuous
Cbc0038I Mini branch and bound did not improve solution (2.21 seconds)
Cbc0038I Round again with cutoff of 389.088
Cbc0038I Pass  45: suminf.   69.17944 (504) obj. 304.179 iterations 0
Cbc0038I Pass  46: suminf.   64.85128 (518) obj. 325.248 iterations 306
Cbc0038I Pass  47: suminf.   65.93454 (488) obj. 327.923 iterations 157
Cbc0038I Pass  48: suminf.   61.47824 (487) obj. 329.548 iterations 65
Cbc0038I Pass  49: suminf.   59.99070 (494) obj. 332.811 iterations 86
Cbc0038I Pass  50: suminf.   58.08136 (497) obj. 329.635 iterations 142
Cbc0038I Pass  51: suminf.   59.84079 (471) obj. 337.195 iterations 243
Cbc0038I Pass  52: suminf.   60.70258 (459) obj. 336.906 iterations 164
Cbc0038I Pass  53: suminf.   60.91246 (456) obj. 336.687 iterations 11
Cbc0038I Pass  54: suminf.   62.04231 (431) obj. 329.392 iterations 187
Cbc0038I Pass  55: suminf.   58.12003 (418) obj. 333.731 iterations 208
Cbc0038I Pass  56: suminf.   56.63664 (408) obj. 333.993 iterations 60
Cbc0038I Pass  57: suminf.   56.89201 (403) obj. 333.876 iterations 18
Cbc0038I Pass  58: suminf.   55.84303 (369) obj. 337.998 iterations 148
Cbc0038I Pass  59: suminf.   51.10165 (355) obj. 349.825 iterations 215
Cbc0038I Pass  60: suminf.   46.57041 (280) obj. 359.131 iterations 153
Cbc0038I Pass  61: suminf.   37.16424 (238) obj. 353.82 iterations 348
Cbc0038I Pass  62: suminf.   35.71600 (235) obj. 374.263 iterations 290
Cbc0038I Pass  63: suminf.   35.22701 (253) obj. 373.116 iterations 106
Cbc0038I Pass  64: suminf.   29.56246 (215) obj. 389.088 iterations 319
Cbc0038I Pass  65: suminf.   25.30834 (196) obj. 389.088 iterations 121
Cbc0038I Pass  66: suminf.   24.79852 (205) obj. 389.088 iterations 91
Cbc0038I Pass  67: suminf.   24.79852 (205) obj. 389.088 iterations 6
Cbc0038I Pass  68: suminf.   19.86259 (149) obj. 389.088 iterations 152
Cbc0038I Pass  69: suminf.   19.87632 (143) obj. 389.088 iterations 29
Cbc0038I Pass  70: suminf.   13.06692 (80) obj. 360.373 iterations 209
Cbc0038I Pass  71: suminf.   11.65375 (98) obj. 365.361 iterations 125
Cbc0038I Pass  72: suminf.    8.35903 (76) obj. 365.945 iterations 185
Cbc0038I Pass  73: suminf.    5.67233 (74) obj. 366.088 iterations 29
Cbc0038I Pass  74: suminf.    3.88022 (53) obj. 353.616 iterations 342
Cbc0038I Pass  75: suminf.    3.88022 (53) obj. 353.616 iterations 4
Cbc0038I Pass  76: suminf.    0.00000 (0) obj. 336 iterations 158
Cbc0038I Solution found of 336
Cbc0038I Cleaned solution of 336
Cbc0038I Before mini branch and bound, 193 integers at bound fixed and 0 continuous
Cbc0038I Mini branch and bound did not improve solution (2.87 seconds)
Cbc0038I Round again with cutoff of 313.576
Cbc0038I Pass  77: suminf.   69.17944 (504) obj. 304.179 iterations 0
Cbc0038I Pass  78: suminf.   68.08030 (524) obj. 313.576 iterations 324
Cbc0038I Pass  79: suminf.   63.29540 (518) obj. 313.576 iterations 171
Cbc0038I Pass  80: suminf.   66.59197 (515) obj. 313.576 iterations 106
Cbc0038I Pass  81: suminf.   62.70774 (525) obj. 313.576 iterations 89
Cbc0038I Pass  82: suminf.   60.13846 (542) obj. 313.576 iterations 252
Cbc0038I Pass  83: suminf.   54.11480 (555) obj. 313.576 iterations 246
Cbc0038I Pass  84: suminf.   58.06109 (491) obj. 313.576 iterations 307
Cbc0038I Pass  85: suminf.   62.34523 (522) obj. 313.576 iterations 124
Cbc0038I Pass  86: suminf.   63.17394 (522) obj. 313.576 iterations 60
Cbc0038I Pass  87: suminf.   63.95726 (462) obj. 313.576 iterations 275
Cbc0038I Pass  88: suminf.   62.72820 (535) obj. 313.576 iterations 280
Cbc0038I Pass  89: suminf.   61.49173 (526) obj. 313.576 iterations 45
Cbc0038I Pass  90: suminf.   63.89270 (469) obj. 313.576 iterations 252
Cbc0038I Pass  91: suminf.   62.13730 (512) obj. 313.576 iterations 184
Cbc0038I Pass  92: suminf.   99.02700 (453) obj. 313.576 iterations 973
Cbc0038I Pass  93: suminf.   62.24809 (355) obj. 313.576 iterations 642
Cbc0038I Pass  94: suminf.   55.64477 (334) obj. 313.576 iterations 320
Cbc0038I Pass  95: suminf.   45.18249 (306) obj. 313.576 iterations 356
Cbc0038I Pass  96: suminf.   37.50828 (215) obj. 313.576 iterations 299
Cbc0038I Pass  97: suminf.   35.62179 (219) obj. 313.576 iterations 160
Cbc0038I Pass  98: suminf.   35.12302 (207) obj. 313.576 iterations 91
Cbc0038I Pass  99: suminf.   30.45302 (194) obj. 313.576 iterations 489
Cbc0038I Pass 100: suminf.   29.48906 (195) obj. 313.576 iterations 47
Cbc0038I Pass 101: suminf.   29.06165 (195) obj. 313.576 iterations 10
Cbc0038I Pass 102: suminf.   28.11054 (190) obj. 313.576 iterations 51
Cbc0038I Pass 103: suminf.   27.99478 (172) obj. 313.576 iterations 15
Cbc0038I Pass 104: suminf.   27.76105 (166) obj. 313.576 iterations 28
Cbc0038I Pass 105: suminf.   19.73225 (143) obj. 313.576 iterations 286
Cbc0038I Pass 106: suminf.   19.29903 (142) obj. 313.576 iterations 45
Cbc0038I Pass 107: suminf.   16.94273 (139) obj. 313.576 iterations 347
Cbc0038I Pass 108: suminf.   15.68362 (175) obj. 313.576 iterations 143
Cbc0038I Pass 109: suminf.   11.27484 (119) obj. 313.576 iterations 213
Cbc0038I Pass 110: suminf.   10.72140 (118) obj. 313.576 iterations 111
Cbc0038I Pass 111: suminf.    5.44822 (62) obj. 313.576 iterations 249
Cbc0038I Pass 112: suminf.    4.30488 (61) obj. 313.576 iterations 90
Cbc0038I Pass 113: suminf.    5.12084 (66) obj. 313.576 iterations 255
Cbc0038I Pass 114: suminf.    4.88741 (61) obj. 313.576 iterations 45
Cbc0038I Pass 115: suminf.    3.83477 (49) obj. 313.576 iterations 626
Cbc0038I Pass 116: suminf.    3.55440 (49) obj. 313.576 iterations 99
Cbc0038I Pass 117: suminf.    5.99652 (48) obj. 313.576 iterations 124
Cbc0038I Pass 118: suminf.    3.55050 (49) obj. 313.576 iterations 258
Cbc0038I Pass 119: suminf.    9.50493 (73) obj. 313.576 iterations 203
Cbc0038I Pass 120: suminf.    6.63101 (62) obj. 313.576 iterations 127
Cbc0038I Pass 121: suminf.    5.60576 (55) obj. 307.965 iterations 566
Cbc0038I Pass 122: suminf.    4.44354 (45) obj. 313.576 iterations 250
Cbc0038I Pass 123: suminf.    4.29444 (36) obj. 308 iterations 190
Cbc0038I Pass 124: suminf.    3.53773 (29) obj. 313.576 iterations 84
Cbc0038I Pass 125: suminf.    9.84739 (58) obj. 313.576 iterations 221
Cbc0038I Pass 126: suminf.    7.05380 (125) obj. 313.576 iterations 331
Cbc0038I Pass 127: suminf.    4.72827 (32) obj. 311.063 iterations 205
Cbc0038I Pass 128: suminf.    4.90731 (73) obj. 313.576 iterations 178
Cbc0038I Pass 129: suminf.    9.83361 (71) obj. 313.576 iterations 190
Cbc0038I Pass 130: suminf.    3.07179 (36) obj. 313.576 iterations 103
Cbc0038I Pass 131: suminf.    8.69202 (64) obj. 313.576 iterations 215
Cbc0038I Pass 132: suminf.    6.59904 (56) obj. 313.576 iterations 154
Cbc0038I Pass 133: suminf.    7.85703 (52) obj. 313.576 iterations 950
Cbc0038I Pass 134: suminf.    4.29169 (31) obj. 313.576 iterations 73
Cbc0038I Pass 135: suminf.    8.20983 (42) obj. 313.576 iterations 284
Cbc0038I Pass 136: suminf.    3.56047 (45) obj. 313.576 iterations 280
Cbc0038I Pass 137: suminf.   10.64039 (51) obj. 313.576 iterations 317
Cbc0038I Pass 138: suminf.    9.92667 (46) obj. 313.576 iterations 44
Cbc0038I Pass 139: suminf.    5.36831 (33) obj. 313.576 iterations 33
Cbc0038I Pass 140: suminf.    5.56491 (30) obj. 313.576 iterations 568
Cbc0038I Pass 141: suminf.    3.65460 (49) obj. 313.576 iterations 195
Cbc0038I Pass 142: suminf.   12.58688 (82) obj. 313.576 iterations 251
Cbc0038I Pass 143: suminf.    8.39449 (59) obj. 313.576 iterations 92
Cbc0038I Pass 144: suminf.    8.00946 (53) obj. 313.576 iterations 21
Cbc0038I Pass 145: suminf.   13.36902 (76) obj. 313.576 iterations 245
Cbc0038I Pass 146: suminf.   10.48549 (79) obj. 313.576 iterations 126
Cbc0038I Pass 147: suminf.   10.08604 (80) obj. 313.576 iterations 19
Cbc0038I Pass 148: suminf.    4.58809 (47) obj. 313.576 iterations 240
Cbc0038I Pass 149: suminf.    4.40992 (53) obj. 313.576 iterations 76
Cbc0038I Pass 150: suminf.   14.01288 (119) obj. 313.576 iterations 549
Cbc0038I Pass 151: suminf.    8.59954 (93) obj. 313.576 iterations 85
Cbc0038I Pass 152: suminf.    7.37730 (94) obj. 313.576 iterations 93
Cbc0038I Pass 153: suminf.    7.31362 (58) obj. 313.576 iterations 31
Cbc0038I Pass 154: suminf.    4.02178 (58) obj. 313.576 iterations 319
Cbc0038I Pass 155: suminf.    3.92611 (57) obj. 313.576 iterations 33
Cbc0038I Pass 156: suminf.    1.74155 (40) obj. 313.576 iterations 72
Cbc0038I Pass 157: suminf.    1.74155 (40) obj. 313.576 iterations 5
Cbc0038I Pass 158: suminf.    2.58654 (23) obj. 308.852 iterations 93
Cbc0038I Pass 159: suminf.    0.70250 (23) obj. 313.576 iterations 27
Cbc0038I Pass 160: suminf.    5.33267 (58) obj. 309.232 iterations 1109
Cbc0038I Pass 161: suminf.    1.87710 (13) obj. 308 iterations 50
Cbc0038I Pass 162: suminf.    0.00000 (0) obj. 308 iterations 71
Cbc0038I Solution found of 308
Cbc0038I Cleaned solution of 308
Cbc0038I Before mini branch and bound, 126 integers at bound fixed and 0 continuous
Cbc0038I Full problem 2708 rows 939 columns, reduced to 2444 rows 813 columns - 281 fixed gives 549, 173 - ok now
Cbc0038I Full problem 2708 rows 939 columns, reduced to 207 rows 74 columns
Cbc0038I Mini branch and bound improved solution from 308 to 305 (5.23 seconds)
Cbc0038I Round again with cutoff of 281.163
Cbc0038I Pass 163: suminf.   73.07716 (500) obj. 281 iterations 113
Cbc0038I Pass 164: suminf.   66.29162 (525) obj. 281.163 iterations 275
Cbc0038I Pass 165: suminf.   62.72956 (517) obj. 281.163 iterations 168
Cbc0038I Pass 166: suminf.   62.81583 (519) obj. 281.163 iterations 113
Cbc0038I Pass 167: suminf.   65.48235 (520) obj. 281.163 iterations 216
Cbc0038I Pass 168: suminf.   61.36503 (545) obj. 281.163 iterations 187
Cbc0038I Pass 169: suminf.   60.75186 (437) obj. 281.163 iterations 324
Cbc0038I Pass 170: suminf.   62.65022 (448) obj. 281.163 iterations 139
Cbc0038I Pass 171: suminf.   60.22861 (408) obj. 281.163 iterations 256
Cbc0038I Pass 172: suminf.   58.15886 (367) obj. 281.163 iterations 220
Cbc0038I Pass 173: suminf.   55.81477 (332) obj. 281.163 iterations 154
Cbc0038I Pass 174: suminf.   47.63863 (321) obj. 281.163 iterations 247
Cbc0038I Pass 175: suminf.   44.16901 (277) obj. 281.163 iterations 314
Cbc0038I Pass 176: suminf.   40.16338 (223) obj. 281.163 iterations 184
Cbc0038I Pass 177: suminf.   38.55287 (210) obj. 281.163 iterations 256
Cbc0038I Pass 178: suminf.   36.64318 (206) obj. 281.163 iterations 257
Cbc0038I Pass 179: suminf.   28.25010 (184) obj. 281.163 iterations 369
Cbc0038I Pass 180: suminf.   24.71599 (184) obj. 281.163 iterations 343
Cbc0038I Pass 181: suminf.   24.87639 (179) obj. 281.163 iterations 346
Cbc0038I Pass 182: suminf.   24.04758 (174) obj. 281.163 iterations 123
Cbc0038I Pass 183: suminf.   25.11215 (175) obj. 281.163 iterations 179
Cbc0038I Pass 184: suminf.   24.98234 (174) obj. 281.163 iterations 62
Cbc0038I Pass 185: suminf.   24.75637 (174) obj. 281.163 iterations 148
Cbc0038I Pass 186: suminf.   24.65423 (175) obj. 281.163 iterations 59
Cbc0038I Pass 187: suminf.   24.09979 (179) obj. 281.163 iterations 55
Cbc0038I Pass 188: suminf.   22.88170 (144) obj. 281.163 iterations 719
Cbc0038I Pass 189: suminf.   17.11506 (165) obj. 281.163 iterations 224
Cbc0038I Pass 190: suminf.   17.08090 (164) obj. 281.163 iterations 17
Cbc0038I Pass 191: suminf.   15.39462 (185) obj. 281.163 iterations 180
Cbc0038I Pass 192: suminf.   17.37423 (161) obj. 281.163 iterations 108
Cbc0038I Pass 193: suminf.   15.49696 (163) obj. 281.163 iterations 145
Cbc0038I Pass 194: suminf.   16.19224 (162) obj. 281.163 iterations 215
Cbc0038I Pass 195: suminf.   15.21860 (129) obj. 281.163 iterations 431
Cbc0038I Pass 196: suminf.   14.14980 (138) obj. 281.163 iterations 169
Cbc0038I Pass 197: suminf.   14.00253 (136) obj. 281.163 iterations 84
Cbc0038I Pass 198: suminf.   12.00665 (106) obj. 281.163 iterations 254
Cbc0038I Pass 199: suminf.   12.39556 (133) obj. 281.163 iterations 89
Cbc0038I Pass 200: suminf.   12.88636 (124) obj. 281.163 iterations 33
Cbc0038I Pass 201: suminf.   19.89270 (123) obj. 281.163 iterations 213
Cbc0038I Pass 202: suminf.   13.84610 (111) obj. 281.163 iterations 146
Cbc0038I Pass 203: suminf.   13.29554 (104) obj. 281.163 iterations 75
Cbc0038I Pass 204: suminf.   14.24255 (100) obj. 281.163 iterations 84
Cbc0038I Pass 205: suminf.   58.72999 (286) obj. 281.163 iterations 747
Cbc0038I Pass 206: suminf.   34.29136 (184) obj. 281.163 iterations 668
Cbc0038I Pass 207: suminf.   31.29013 (195) obj. 281.163 iterations 207
Cbc0038I Pass 208: suminf.   24.21573 (162) obj. 281.163 iterations 229
Cbc0038I Pass 209: suminf.   21.68029 (146) obj. 281.163 iterations 113
Cbc0038I Pass 210: suminf.   20.45743 (134) obj. 281.163 iterations 90
Cbc0038I Pass 211: suminf.   20.23544 (144) obj. 281.163 iterations 48
Cbc0038I Pass 212: suminf.   18.23515 (130) obj. 281.163 iterations 232
Cbc0038I Pass 213: suminf.   16.69402 (139) obj. 281.163 iterations 121
Cbc0038I Pass 214: suminf.   18.23267 (121) obj. 281.163 iterations 214
Cbc0038I Pass 215: suminf.   16.26829 (122) obj. 281.163 iterations 162
Cbc0038I Pass 216: suminf.   15.64779 (146) obj. 281.163 iterations 194
Cbc0038I Pass 217: suminf.   15.80868 (137) obj. 281.163 iterations 79
Cbc0038I Pass 218: suminf.   15.66669 (138) obj. 281.163 iterations 50
Cbc0038I Pass 219: suminf.   14.15969 (115) obj. 281.163 iterations 109
Cbc0038I Pass 220: suminf.   14.12604 (120) obj. 281.163 iterations 32
Cbc0038I Pass 221: suminf.   17.32692 (115) obj. 281.163 iterations 155
Cbc0038I Pass 222: suminf.   16.82602 (129) obj. 281.163 iterations 186
Cbc0038I Pass 223: suminf.   16.36087 (139) obj. 281.163 iterations 208
Cbc0038I Pass 224: suminf.   15.16331 (141) obj. 281.163 iterations 119
Cbc0038I Pass 225: suminf.   17.63894 (119) obj. 281.163 iterations 206
Cbc0038I Pass 226: suminf.   16.10658 (107) obj. 281.163 iterations 146
Cbc0038I Pass 227: suminf.   14.46399 (114) obj. 281.163 iterations 90
Cbc0038I Pass 228: suminf.   14.49581 (120) obj. 281.163 iterations 53
Cbc0038I Pass 229: suminf.   17.56298 (114) obj. 281.163 iterations 136
Cbc0038I Pass 230: suminf.   59.84611 (304) obj. 281.163 iterations 732
Cbc0038I Pass 231: suminf.   26.95576 (181) obj. 281.163 iterations 776
Cbc0038I Pass 232: suminf.   22.99365 (166) obj. 281.163 iterations 198
Cbc0038I Pass 233: suminf.   20.31209 (154) obj. 281.163 iterations 189
Cbc0038I Pass 234: suminf.   15.32234 (131) obj. 281.163 iterations 224
Cbc0038I Pass 235: suminf.   12.41857 (144) obj. 281.163 iterations 95
Cbc0038I Pass 236: suminf.   14.17047 (125) obj. 281.163 iterations 191
Cbc0038I Pass 237: suminf.   10.66436 (135) obj. 281.163 iterations 129
Cbc0038I Pass 238: suminf.   13.79553 (119) obj. 281.163 iterations 110
Cbc0038I Pass 239: suminf.   11.99797 (127) obj. 281.163 iterations 117
Cbc0038I Pass 240: suminf.   10.90284 (127) obj. 281.163 iterations 39
Cbc0038I Pass 241: suminf.   52.43528 (298) obj. 281.163 iterations 764
Cbc0038I Pass 242: suminf.   28.54148 (192) obj. 281.163 iterations 517
Cbc0038I Pass 243: suminf.   26.01831 (172) obj. 281.163 iterations 149
Cbc0038I Pass 244: suminf.   26.01831 (172) obj. 281.163 iterations 4
Cbc0038I Pass 245: suminf.   21.19574 (153) obj. 281.163 iterations 228
Cbc0038I Pass 246: suminf.   21.58702 (167) obj. 281.163 iterations 63
Cbc0038I Pass 247: suminf.   19.23007 (144) obj. 281.163 iterations 172
Cbc0038I Pass 248: suminf.   18.95978 (156) obj. 281.163 iterations 57
Cbc0038I Pass 249: suminf.   18.97251 (157) obj. 281.163 iterations 241
Cbc0038I Pass 250: suminf.   16.19218 (156) obj. 281.163 iterations 110
Cbc0038I Pass 251: suminf.   16.30584 (150) obj. 281.163 iterations 94
Cbc0038I Pass 252: suminf.   17.62918 (165) obj. 281.163 iterations 237
Cbc0038I Pass 253: suminf.   15.83209 (170) obj. 281.163 iterations 98
Cbc0038I Pass 254: suminf.   15.20940 (145) obj. 281.163 iterations 37
Cbc0038I Pass 255: suminf.   15.15891 (165) obj. 281.163 iterations 112
Cbc0038I Pass 256: suminf.   14.62553 (139) obj. 281.163 iterations 59
Cbc0038I Pass 257: suminf.   14.63964 (143) obj. 281.163 iterations 5
Cbc0038I Pass 258: suminf.   16.34482 (139) obj. 281.163 iterations 280
Cbc0038I Pass 259: suminf.   14.75906 (142) obj. 281.163 iterations 196
Cbc0038I Pass 260: suminf.   13.92184 (138) obj. 281.163 iterations 80
Cbc0038I Pass 261: suminf.   13.99761 (134) obj. 281.163 iterations 32
Cbc0038I Pass 262: suminf.   65.10282 (389) obj. 281.163 iterations 923
Cbc0038I No solution found this major pass
Cbc0038I Before mini branch and bound, 84 integers at bound fixed and 0 continuous
Cbc0038I Full problem 2708 rows 939 columns, reduced to 2534 rows 855 columns - 284 fixed gives 545, 172 - ok now
Cbc0038I Full problem 2708 rows 939 columns, reduced to 178 rows 63 columns
Cbc0038I Mini branch and bound did not improve solution (7.77 seconds)
Cbc0038I After 7.77 seconds - Feasibility pump exiting with objective of 305 - took 7.00 seconds
Cbc0012I Integer solution of 305 found by feasibility pump after 0 iterations and 0 nodes (7.77 seconds)
Cbc0038I Full problem 2708 rows 939 columns, reduced to 1715 rows 467 columns - 250 fixed gives 147, 34 - ok now
Cbc0031I 53 added rows had average density of 13.867925
Cbc0013I At root node, 53 cuts changed objective from 227.87755 to 260.0318 in 11 passes
Cbc0014I Cut generator 0 (Probing) - 96 row cuts average 5.2 elements, 5 column cuts (5 active)  in 0.055 seconds - new frequency is 1
Cbc0014I Cut generator 1 (Gomory) - 251 row cuts average 430.8 elements, 0 column cuts (0 active)  in 0.283 seconds - new frequency is 1
Cbc0014I Cut generator 2 (Knapsack) - 6 row cuts average 5.3 elements, 0 column cuts (0 active)  in 0.017 seconds - new frequency is -100
Cbc0014I Cut generator 3 (Clique) - 0 row cuts average 0.0 elements, 0 column cuts (0 active)  in 0.009 seconds - new frequency is -100
Cbc0014I Cut generator 4 (MixedIntegerRounding2) - 0 row cuts average 0.0 elements, 0 column cuts (0 active)  in 0.013 seconds - new frequency is -100
Cbc0014I Cut generator 5 (FlowCover) - 0 row cuts average 0.0 elements, 0 column cuts (0 active)  in 0.009 seconds - new frequency is -100
Cbc0014I Cut generator 6 (TwoMirCuts) - 350 row cuts average 19.1 elements, 0 column cuts (0 active)  in 0.096 seconds - new frequency is 1
Cbc0014I Cut generator 7 (ZeroHalf) - 99 row cuts average 23.5 elements, 0 column cuts (0 active)  in 0.221 seconds - new frequency is 1
Cbc0010I After 0 nodes, 1 on tree, 305 best solution, best possible 261 (13.27 seconds)
Cbc0038I Full problem 2708 rows 939 columns, reduced to 1718 rows 478 columns - 239 fixed gives 225, 51 - ok now
Cbc0038I Full problem 2708 rows 939 columns, reduced to 575 rows 169 columns
Cbc0010I After 100 nodes, 8 on tree, 305 best solution, best possible 272 (51.98 seconds)
Cbc0038I Full problem 2708 rows 939 columns, reduced to 538 rows 167 columns
Cbc0010I After 200 nodes, 14 on tree, 305 best solution, best possible 277 (81.64 seconds)
Cbc0038I Full problem 2708 rows 939 columns, reduced to 562 rows 170 columns
Cbc0010I After 300 nodes, 8 on tree, 305 best solution, best possible 277 (98.30 seconds)
Cbc0038I Full problem 2708 rows 939 columns, reduced to 577 rows 179 columns
Cbc0010I After 400 nodes, 15 on tree, 305 best solution, best possible 281 (117.62 seconds)
Cbc0038I Full problem 2708 rows 939 columns, reduced to 505 rows 153 columns
Cbc0010I After 500 nodes, 16 on tree, 305 best solution, best possible 283 (134.79 seconds)
Cbc0038I Full problem 2708 rows 939 columns, reduced to 1497 rows 444 columns - 183 fixed gives 212, 52 - ok now
Cbc0010I After 600 nodes, 10 on tree, 305 best solution, best possible 283 (149.58 seconds)
Cbc0010I After 700 nodes, 10 on tree, 305 best solution, best possible 283 (168.63 seconds)
Cbc0038I Full problem 2708 rows 939 columns, reduced to 430 rows 128 columns
Cbc0010I After 800 nodes, 18 on tree, 305 best solution, best possible 286 (192.51 seconds)
Cbc0038I Full problem 2708 rows 939 columns, reduced to 1558 rows 458 columns - 197 fixed gives 272, 63 - ok now
Cbc0038I Full problem 2708 rows 939 columns, reduced to 66 rows 22 columns
Cbc0010I After 900 nodes, 11 on tree, 305 best solution, best possible 286 (210.49 seconds)
Cbc0010I After 1000 nodes, 8 on tree, 305 best solution, best possible 289 (230.89 seconds)
Cbc0010I After 1100 nodes, 17 on tree, 305 best solution, best possible 289 (250.10 seconds)
Cbc0038I Full problem 2708 rows 939 columns, reduced to 1713 rows 483 columns - 235 fixed gives 158, 42 - ok now
Cbc0010I After 1200 nodes, 9 on tree, 305 best solution, best possible 289 (265.48 seconds)
Cbc0010I After 1300 nodes, 17 on tree, 305 best solution, best possible 289 (275.10 seconds)
Cbc0010I After 1400 nodes, 22 on tree, 305 best solution, best possible 289 (286.21 seconds)
Cbc0010I After 1500 nodes, 22 on tree, 305 best solution, best possible 289 (291.33 seconds)
Cbc0010I After 1600 nodes, 10 on tree, 305 best solution, best possible 289 (296.19 seconds)
Cbc0010I After 1700 nodes, 13 on tree, 305 best solution, best possible 289 (307.61 seconds)
Cbc0010I After 1800 nodes, 10 on tree, 305 best solution, best possible 289 (319.89 seconds)
Cbc0010I After 1900 nodes, 23 on tree, 305 best solution, best possible 289 (326.47 seconds)
Cbc0010I After 2000 nodes, 9 on tree, 305 best solution, best possible 289 (334.03 seconds)
Cbc0010I After 2100 nodes, 25 on tree, 305 best solution, best possible 289 (343.19 seconds)
Cbc0010I After 2200 nodes, 20 on tree, 305 best solution, best possible 289 (346.42 seconds)
Cbc0010I After 2300 nodes, 10 on tree, 305 best solution, best possible 289 (358.55 seconds)
Cbc0010I After 2400 nodes, 28 on tree, 305 best solution, best possible 289 (366.25 seconds)
Cbc0038I Full problem 2708 rows 939 columns, reduced to 808 rows 242 columns
Cbc0010I After 2500 nodes, 14 on tree, 305 best solution, best possible 289 (375.49 seconds)
Cbc0010I After 2600 nodes, 21 on tree, 305 best solution, best possible 289 (390.80 seconds)
Cbc0010I After 2700 nodes, 7 on tree, 305 best solution, best possible 289 (400.99 seconds)
Cbc0010I After 2800 nodes, 18 on tree, 305 best solution, best possible 289 (415.63 seconds)
Cbc0010I After 2900 nodes, 22 on tree, 305 best solution, best possible 289 (433.21 seconds)
Cbc0038I Full problem 2708 rows 939 columns, reduced to 1574 rows 460 columns - 196 fixed gives 208, 47 - ok now
Cbc0038I Full problem 2708 rows 939 columns, reduced to 37 rows 14 columns
Cbc0010I After 3000 nodes, 17 on tree, 305 best solution, best possible 289 (448.91 seconds)
Cbc0010I After 3100 nodes, 8 on tree, 305 best solution, best possible 289 (463.23 seconds)
Cbc0001I Search completed - best objective 305, took 1645521 iterations and 3178 nodes (474.09 seconds)
Cbc0032I Strong branching done 16736 times (1110587 iterations), fathomed 108 nodes and fixed 2418 variables
Cbc0035I Maximum depth 77, 0 variables fixed on reduced cost
Cuts at root node changed objective from 227.878 to 261
Probing was tried 2333 times and created 140687 cuts of which 0 were active after adding rounds of cuts (7.820 seconds)
Gomory was tried 1826 times and created 2289 cuts of which 0 were active after adding rounds of cuts (4.681 seconds)
Knapsack was tried 11 times and created 6 cuts of which 0 were active after adding rounds of cuts (0.017 seconds)
Clique was tried 11 times and created 0 cuts of which 0 were active after adding rounds of cuts (0.009 seconds)
MixedIntegerRounding2 was tried 11 times and created 0 cuts of which 0 were active after adding rounds of cuts (0.013 seconds)
FlowCover was tried 11 times and created 0 cuts of which 0 were active after adding rounds of cuts (0.009 seconds)
TwoMirCuts was tried 1826 times and created 17094 cuts of which 0 were active after adding rounds of cuts (2.302 seconds)
ZeroHalf was tried 1826 times and created 3408 cuts of which 0 were active after adding rounds of cuts (21.457 seconds)
ImplicationCuts was tried 22 times and created 40 cuts of which 0 were active after adding rounds of cuts (0.001 seconds)

Result - Optimal solution found

Objective value:                305.00000000
Enumerated nodes:               3178
Total iterations:               1645521
Time (CPU seconds):             474.17
Time (Wallclock seconds):       479.27

Total time (CPU seconds):       474.18   (Wallclock seconds):       479.28

